num_offers = 30;
num_halls = 10;
start=[15,35,5,71,27,12,37,27,84,24,60,53,24,52,57,20,44,35,29,6,77,20,17,26,10,29,24,36,45,17];
end=[78,99,41,93,34,94,43,54,100,33,91,70,88,74,58,55,55,51,76,63,87,29,45,41,82,96,80,82,100,47];
price=[1555,3535,3530,590,792,1371,186,906,1073,319,1468,1401,6068,1831,161,2984,325,985,4721,5063,228,814,1958,1023,1330,1495,1437,3871,3226,1817];
requirement=[667,347,416,865,223,788,667,635,961,725,473,335,355,436,388,872,365,576,298,221,415,815,811,405,928,294,305,283,526,399];
capacity=[894,813,656,936,758,597,703,831,996,875];
